c generated by sgen3tocnf
c nLits = 636
c actual nVars = 101
c Command: sgen3tocnf 025 0 22 25 101 4 2 0 /dev/null
p cnf 101 212
-33 -45 -49 0
-33 -45 -53 0
-33 -49 -53 0
-45 -49 -53 0
-50 -61 -65 0
-50 -61 -89 0
-50 -65 -89 0
-61 -65 -89 0
-34 -81 -85 0
-34 -81 -93 0
-34 -85 -93 0
-81 -85 -93 0
-21 -54 -62 0
-21 -54 -77 0
-21 -62 -77 0
-54 -62 -77 0
-13 -41 -66 0
-13 -41 -82 0
-13 -66 -82 0
-41 -66 -82 0
-37 -42 -51 0
-37 -42 -86 0
-37 -51 -86 0
-42 -51 -86 0
-9 -17 -22 0
-9 -17 -52 0
-9 -22 -52 0
-17 -22 -52 0
-5 -18 -29 0
-5 -18 -35 0
-5 -29 -35 0
-18 -29 -35 0
-1 -6 -38 0
-1 -6 -73 0
-1 -38 -73 0
-6 -38 -73 0
-10 -43 -55 0
-10 -43 -94 0
-10 -55 -94 0
-43 -55 -94 0
-2 -25 -63 0
-2 -25 -87 0
-2 -63 -87 0
-25 -63 -87 0
-3 -11 -83 0
-3 -11 -97 0
-3 -83 -97 0
-11 -83 -97 0
-39 -57 -67 0
-39 -57 -78 0
-39 -67 -78 0
-57 -67 -78 0
-26 -36 -68 0
-26 -36 -69 0
-26 -68 -69 0
-36 -68 -69 0
-19 -56 -74 0
-19 -56 -84 0
-19 -74 -84 0
-56 -74 -84 0
-7 -14 -23 0
-7 -14 -46 0
-7 -23 -46 0
-14 -23 -46 0
-12 -27 -47 0
-12 -27 -79 0
-12 -47 -79 0
-27 -47 -79 0
-30 -40 -64 0
-30 -40 -95 0
-30 -64 -95 0
-40 -64 -95 0
-8 -90 -96 0
-8 -90 -98 0
-8 -96 -98 0
-90 -96 -98 0
-24 -31 -88 0
-24 -31 -91 0
-24 -88 -91 0
-31 -88 -91 0
-15 -70 -75 0
-15 -70 -92 0
-15 -75 -92 0
-70 -75 -92 0
-20 -71 -80 0
-20 -71 -99 0
-20 -80 -99 0
-71 -80 -99 0
-4 -44 -58 0
-4 -44 -72 0
-4 -58 -72 0
-44 -58 -72 0
-16 -28 -32 0
-16 -28 -59 0
-16 -32 -59 0
-28 -32 -59 0
-48 -60 -76 0
-48 -60 -100 0
-48 -60 -101 0
-48 -76 -100 0
-48 -76 -101 0
-48 -100 -101 0
-60 -76 -100 0
-60 -76 -101 0
-60 -100 -101 0
-76 -100 -101 0
1 2 3 0
1 2 4 0
1 3 4 0
2 3 4 0
5 6 7 0
5 6 8 0
5 7 8 0
6 7 8 0
9 10 11 0
9 10 12 0
9 11 12 0
10 11 12 0
13 14 15 0
13 14 16 0
13 15 16 0
14 15 16 0
17 18 19 0
17 18 20 0
17 19 20 0
18 19 20 0
21 22 23 0
21 22 24 0
21 23 24 0
22 23 24 0
25 26 27 0
25 26 28 0
25 27 28 0
26 27 28 0
29 30 31 0
29 30 32 0
29 31 32 0
30 31 32 0
33 34 35 0
33 34 36 0
33 35 36 0
34 35 36 0
37 38 39 0
37 38 40 0
37 39 40 0
38 39 40 0
41 42 43 0
41 42 44 0
41 43 44 0
42 43 44 0
45 46 47 0
45 46 48 0
45 47 48 0
46 47 48 0
49 50 51 0
49 50 52 0
49 51 52 0
50 51 52 0
53 54 55 0
53 54 56 0
53 55 56 0
54 55 56 0
57 58 59 0
57 58 60 0
57 59 60 0
58 59 60 0
61 62 63 0
61 62 64 0
61 63 64 0
62 63 64 0
65 66 67 0
65 66 68 0
65 67 68 0
66 67 68 0
69 70 71 0
69 70 72 0
69 71 72 0
70 71 72 0
73 74 75 0
73 74 76 0
73 75 76 0
74 75 76 0
77 78 79 0
77 78 80 0
77 79 80 0
78 79 80 0
81 82 83 0
81 82 84 0
81 83 84 0
82 83 84 0
85 86 87 0
85 86 88 0
85 86 101 0
85 87 88 0
85 87 101 0
85 88 101 0
86 87 88 0
86 87 101 0
86 88 101 0
87 88 101 0
89 90 91 0
89 90 92 0
89 91 92 0
90 91 92 0
93 94 95 0
93 94 96 0
93 95 96 0
94 95 96 0
97 98 99 0
97 98 100 0
97 99 100 0
98 99 100 0
